sat
(
  (define-fun C2_VM3 () Int
    0)
  (define-fun MemProv2 () Int
    3750)
  (define-fun C3_VM5 () Int
    0)
  (define-fun C1_VM3 () Int
    0)
  (define-fun VM1Type () Int
    182)
  (define-fun PriceProv2 () Int
    126)
  (define-fun ProcProv4 () Int
    2)
  (define-fun MemProv5 () Int
    7500)
  (define-fun VM5Type () Int
    182)
  (define-fun StorageProv5 () Int
    2000)
  (define-fun C2_VM1 () Int
    0)
  (define-fun C2_VM2 () Int
    1)
  (define-fun C5_VM2 () Int
    0)
  (define-fun C5_VM3 () Int
    0)
  (define-fun C3_VM3 () Int
    1)
  (define-fun MemProv1 () Int
    7500)
  (define-fun C5_VM4 () Int
    0)
  (define-fun MemProv4 () Int
    3750)
  (define-fun MemProv3 () Int
    7500)
  (define-fun C4_VM1 () Int
    0)
  (define-fun C4_VM5 () Int
    0)
  (define-fun C5_VM5 () Int
    1)
  (define-fun C1_VM5 () Int
    0)
  (define-fun C3_VM4 () Int
    0)
  (define-fun StorageProv3 () Int
    2000)
  (define-fun StorageProv4 () Int
    2000)
  (define-fun VM3Type () Int
    182)
  (define-fun C3_VM1 () Int
    0)
  (define-fun VM2Type () Int
    225)
  (define-fun PriceProv3 () Int
    210)
  (define-fun ProcProv1 () Int
    4)
  (define-fun PriceProv1 () Int
    210)
  (define-fun ProcProv2 () Int
    2)
  (define-fun ProcProv5 () Int
    4)
  (define-fun PriceProv4 () Int
    126)
  (define-fun C3_VM2 () Int
    0)
  (define-fun C4_VM2 () Int
    0)
  (define-fun VM4Type () Int
    225)
  (define-fun PriceProv5 () Int
    210)
  (define-fun C4_VM4 () Int
    1)
  (define-fun StorageProv1 () Int
    2000)
  (define-fun C4_VM3 () Int
    0)
  (define-fun C2_VM5 () Int
    0)
  (define-fun StorageProv2 () Int
    2000)
  (define-fun ProcProv3 () Int
    4)
  (define-fun C2_VM4 () Int
    0)
  (define-fun C1_VM4 () Int
    0)
  (define-fun C1_VM2 () Int
    0)
  (define-fun C5_VM1 () Int
    0)
  (define-fun C1_VM1 () Int
    1)
)
(objectives
 ((+ 0 PriceProv1 PriceProv2 PriceProv3 PriceProv4 PriceProv5) 882)
)
(:added-eqs                   200415
 :arith-eq-adapter            28322
 :arith-bound-propagations-lp 122378
 :arith-conflicts             156
 :arith-diseq                 752585
 :arith-fixed-eqs             1765
 :arith-lower                 1280093
 :arith-make-feasible         28949
 :arith-max-columns           337
 :arith-max-rows              17
 :arith-upper                 237051
 :binary-propagations         1243011
 :bv-bit2core                 10161
 :bv-dynamic-diseqs           601846
 :bv->core-eq                 757
 :conflicts                   5778
 :decisions                   85274
 :del-clause                  773121
 :final-checks                93
 :max-memory                  72.48
 :memory                      70.62
 :minimized-lits              545859
 :mk-bool-var                 59285
 :mk-clause                   773197
 :mk-clause-binary            5202
 :num-allocs                  604831510
 :num-checks                  73
 :pb-conflicts                109
 :pb-predicates               4
 :pb-propagations             978
 :pb-resolves                 109
 :propagations                5273986
 :restarts                    47
 :rlimit-count                22827544
 :solve-eqs-elim-vars         2
 :solve-eqs-steps             16
 :time                        1.42
 :total-time                  1.42)
